B=5;
D=1;
P=8;
S=8;
demands = [3 4 2 2 2 1 2 4 ];
capacities = [4 5 7 7 10 3 7 8 ];
dist_start = [8 10 10 2 6 4 7 8 ];
dist = [4 6 2 2 7 6 1 9 7 1 7 5 4 9 5 10 5 2 3 8 1 4 5 1 3 7 6 8 5 4 9 8 1 10 1 9 8 1 8 6 3 4 2 7 2 6 6 8 7 1 6 9 4 10 9 9 8 7 6 4 2 6 4 4 ];
